11
1 0 10
2 0 5
2 1 9
3 0 8
3 1 5
3 2 2
4 0 10
4 1 9
4 2 7
4 3 1
5 0 1
5 1 2
5 2 4
5 3 2
5 4 4
6 0 7
6 1 8
6 2 7
6 3 7
6 4 7
6 5 7
7 0 7
7 1 7
7 2 8
7 3 3
7 4 4
7 5 8
7 6 6
8 0 6
8 1 1
8 2 7
8 3 6
8 4 10
8 5 4
8 6 8
8 7 7
9 0 7
9 1 2
9 2 9
9 3 3
9 4 7
9 5 10
9 6 8
9 7 8
9 8 8
10 0 9
10 1 10
10 2 1
10 3 4
10 4 9
10 5 7
10 6 3
10 7 4
10 8 3
10 9 8
